1
1 0
293.5 116.5 110.0
20
21 92 1 63 1 50 1 8
4 99 0 37 1 30 1 8
6 119 0 59 1 39 1 24
24 101 0 46 1 25 1 16
30 71 0 63 1 33 1 16
5 92 0 64 1 33 1 8
12 98 1 96 1 56 1 8
2 52 1 37 1 28 1 16
29 91 0 69 0 32 1 8
25 99 0 53 1 36 1 16
15 41 1 33 1 31 1 24
20 97 0 53 1 32 1 8
22 108 0 57 1 40 1 8
10 116 0 49 1 47 1 8
7 54 1 52 1 49 1 8
11 83 0 44 1 23 1 16
3 57 1 33 1 29 1 8
17 83 0 78 0 37 1 8
19 103 0 69 1 49 1 8
14 98 0 88 1 47 1 16

